language ESSENCE' 1.0

letting setA_Explicit be [1, 2, 3, 4, 9, 16, 18, 19, 20, 21, 22, 23, 25, 26, 27, 28; int(1..16)]
letting setB_Explicit be [5, 6, 7, 8, 10, 11, 12, 13, 14, 15, 17, 24, 29, 30, 31, 32; int(1..16)]
